<number of tasks>
50

<cycle time>
1000

<order strength>
0.897


<task times>
1 242
2 75
3 223
4 212
5 226
6 116
7 190
8 48
9 62
10 181
11 126
12 39
13 168
14 114
15 151
16 78
17 113
18 94
19 114
20 103
21 144
22 224
23 200
24 57
25 269
26 207
27 135
28 341
29 162
30 57
31 129
32 185
33 143
34 72
35 230
36 260
37 228
38 247
39 130
40 98
41 81
42 210
43 64
44 209
45 80
46 138
47 247
48 164
49 93
50 84

<precedence relations>
1,3
2,3
2,4
3,5
3,6
4,5
4,6
5,7
6,7
7,8
7,9
7,10
8,11
8,12
8,13
9,11
9,12
9,13
10,11
10,12
10,13
11,21
11,22
12,17
12,20
13,14
13,15
13,16
14,17
14,18
14,19
14,20
15,17
15,18
15,19
15,20
16,17
16,18
16,19
16,20
17,21
17,22
17,23
18,21
18,22
18,23
19,21
19,22
19,23
20,21
20,22
20,23
21,24
21,25
22,24
22,25
23,24
23,25
24,26
24,27
24,28
25,26
25,27
26,33
27,30
28,29
28,30
29,31
29,32
29,33
30,31
31,34
32,34
32,35
32,36
33,34
33,35
33,36
34,37
34,38
35,37
35,38
36,41
37,42
37,44
38,39
38,40
38,41
39,43
39,45
39,46
39,47
41,44
42,45
42,47
43,49
44,49
44,50
46,48
46,49
47,48
47,50

<end>
